CLW03
Position Depot: Random
Horizon for Depot: Large
Position of customers: Cluster
Distribution of the demand: Medium
Width of time windows: Wide
Distribution of the service: Large

VEHICLE 
NUMBER 	 CAPACITY 
 7 	 	 101 
 
CUSTOMER
CUST NO. 	 XCOORD.  	 YCOORD. 	 DEMAND 	 READY TIME 	 DUE DATE 	 SERVICE TIME 
 0 	 	 220 	 	 823 	 	 0 	 	 0 	 	 4430 	 	 0 
  1 	 	 83 	 	 532 	 	 2 	 	 3927 	 	 4236 	 	 114 
  2 	 	 643 	 	 116 	 	 1 	 	 3118 	 	 3545 	 	 114 
  3 	 	 46 	 	 16 	 	 10 	 	 1976 	 	 2227 	 	 186 
  4 	 	 73 	 	 655 	 	 76 	 	 2257 	 	 2729 	 	 171 
  5 	 	 7 	 	 619 	 	 9 	 	 3645 	 	 4140 	 	 136 
  6 	 	 100 	 	 523 	 	 5 	 	 3342 	 	 3813 	 	 159 
  7 	 	 49 	 	 5 	 	 8 	 	 2983 	 	 3364 	 	 153 
  8 	 	 600 	 	 80 	 	 1 	 	 3708 	 	 4071 	 	 130 
  9 	 	 35 	 	 491 	 	 4 	 	 -45 	 	 418 	 	 168 
  10 	 	 712 	 	 276 	 	 52 	 	 3990 	 	 4394 	 	 114 
  11 	 	 67 	 	 26 	 	 7 	 	 2431 	 	 2716 	 	 144 
  12 	 	 128 	 	 503 	 	 4 	 	 4211 	 	 4430 	 	 196 
  13 	 	 135 	 	 499 	 	 1 	 	 1376 	 	 1617 	 	 122 
  14 	 	 657 	 	 109 	 	 3 	 	 1087 	 	 1442 	 	 190 
  15 	 	 102 	 	 529 	 	 7 	 	 2880 	 	 3265 	 	 139 
  16 	 	 159 	 	 446 	 	 2 	 	 2137 	 	 2390 	 	 126 
  17 	 	 908 	 	 240 	 	 1 	 	 703 	 	 991 	 	 151 
  18 	 	 653 	 	 216 	 	 6 	 	 534 	 	 894 	 	 153 
  19 	 	 176 	 	 563 	 	 8 	 	 124 	 	 602 	 	 137 
  20 	 	 638 	 	 110 	 	 10 	 	 1083 	 	 1512 	 	 159 
  21 	 	 41 	 	 7 	 	 6 	 	 1407 	 	 1628 	 	 113 
  22 	 	 656 	 	 64 	 	 90 	 	 2024 	 	 2264 	 	 129 
  23 	 	 65 	 	 602 	 	 3 	 	 2999 	 	 3428 	 	 143 
  24 	 	 58 	 	 86 	 	 7 	 	 2271 	 	 2491 	 	 190 
  25 	 	 54 	 	 253 	 	 2 	 	 2342 	 	 2655 	 	 158 
  26 	 	 72 	 	 43 	 	 4 	 	 2912 	 	 3404 	 	 160 
  27 	 	 652 	 	 123 	 	 8 	 	 4035 	 	 4430 	 	 144 
  28 	 	 141 	 	 607 	 	 8 	 	 661 	 	 885 	 	 178 
  29 	 	 108 	 	 494 	 	 9 	 	 1167 	 	 1549 	 	 118 
  30 	 	 715 	 	 130 	 	 10 	 	 668 	 	 936 	 	 115 
  31 	 	 96 	 	 566 	 	 9 	 	 2899 	 	 3327 	 	 198 
  32 	 	 518 	 	 98 	 	 5 	 	 389 	 	 862 	 	 114 
  33 	 	 652 	 	 119 	 	 2 	 	 1783 	 	 2263 	 	 177 
  34 	 	 611 	 	 60 	 	 1 	 	 2502 	 	 2715 	 	 161 
  35 	 	 672 	 	 46 	 	 7 	 	 711 	 	 1095 	 	 125 
  36 	 	 448 	 	 153 	 	 92 	 	 3655 	 	 3900 	 	 120 
  37 	 	 89 	 	 23 	 	 2 	 	 2137 	 	 2525 	 	 114 
  38 	 	 120 	 	 594 	 	 9 	 	 2561 	 	 2864 	 	 139 
  39 	 	 96 	 	 619 	 	 7 	 	 1529 	 	 1961 	 	 109 
  40 	 	 656 	 	 93 	 	 8 	 	 3347 	 	 3821 	 	 189 
  41 	 	 52 	 	 469 	 	 4 	 	 2061 	 	 2261 	 	 156 
  42 	 	 602 	 	 160 	 	 5 	 	 491 	 	 841 	 	 106 
  43 	 	 11 	 	 81 	 	 4 	 	 3980 	 	 4236 	 	 158 
  44 	 	 641 	 	 131 	 	 3 	 	 491 	 	 891 	 	 163 
  45 	 	 60 	 	 697 	 	 2 	 	 1278 	 	 1720 	 	 195 
  46 	 	 34 	 	 511 	 	 4 	 	 -6 	 	 480 	 	 169 
  47 	 	 624 	 	 107 	 	 9 	 	 2352 	 	 2827 	 	 187 
  48 	 	 77 	 	 573 	 	 63 	 	 3260 	 	 3513 	 	 149 
  49 	 	 505 	 	 151 	 	 8 	 	 1050 	 	 1346 	 	 196 
  50 	 	 54 	 	 373 	 	 2 	 	 3444 	 	 3913 	 	 149 
 